(set-info :source |printed by MathSAT|)
(declare-fun _OK_.next () Bool)
(declare-fun call_voiture.dist.next () Int)
(declare-fun call_voiture.flby6.next () Int)
(declare-fun param_s () Bool)
(declare-fun bump () Bool)
(declare-fun call_voiture.ite4.next () Int)
(declare-fun param_s.next () Bool)
(declare-fun move () Bool)
(declare-fun toofast () Bool)
(declare-fun call_voiture.stop.next () Bool)
(declare-fun call_excludes2.excludes.next () Bool)
(declare-fun speed () Int)
(declare-fun second () Bool)
(declare-fun call_voiture.ite2.next () Int)
(declare-fun call_voiture.flby3.next () Bool)
(declare-fun call_excludes2.excludes () Bool)
(declare-fun param_m.next () Bool)
(declare-fun call_Sofar.Sofar () Bool)
(declare-fun call_voiture.toofast () Bool)
(declare-fun dist () Int)
(declare-fun call_voiture.time () Int)
(declare-fun call_voiture.time.next () Int)
(declare-fun call_voiture.ite.next () Int)
(declare-fun call_voiture.flby3 () Bool)
(declare-fun flby.next () Bool)
(declare-fun stop.next () Bool)
(declare-fun meter.next () Bool)
(declare-fun param_m () Bool)
(declare-fun dist.next () Int)
(declare-fun env () Bool)
(declare-fun call_voiture.move () Bool)
(declare-fun call_voiture.meter.next () Bool)
(declare-fun call_voiture.flby5.next () Int)
(declare-fun call_voiture.ite3 () Int)
(declare-fun call_voiture.speed.next () Int)
(declare-fun call_voiture.stop () Bool)
(declare-fun speed.next () Int)
(declare-fun bump.next () Bool)
(declare-fun call_voiture.second.next () Bool)
(declare-fun call_voiture.dist () Int)
(declare-fun move.next () Bool)
(declare-fun call_voiture.ite2 () Int)
(declare-fun call_Sofar.flby () Bool)
(declare-fun call_voiture.bump.next () Bool)
(declare-fun call_voiture.flby4 () Int)
(declare-fun call_voiture.ite3.next () Int)
(declare-fun stop () Bool)
(declare-fun second.next () Bool)
(declare-fun flby () Bool)
(declare-fun call_Sofar.flby.next () Bool)
(declare-fun call_voiture.flby.next () Bool)
(declare-fun call_voiture.bump () Bool)
(declare-fun meter () Bool)
(declare-fun call_voiture.second () Bool)
(declare-fun call_voiture.toofast.next () Bool)
(declare-fun toofast.next () Bool)
(declare-fun call_Sofar.Sofar.next () Bool)
(declare-fun call_voiture.flby6 () Int)
(declare-fun call_voiture.move.next () Bool)
(declare-fun _OK_ () Bool)
(declare-fun call_voiture.flby () Bool)
(declare-fun call_voiture.flby5 () Int)
(declare-fun call_voiture.flby4.next () Int)
(declare-fun call_voiture.flby2.next () Bool)
(declare-fun env.next () Bool)
(declare-fun time () Int)
(declare-fun time.next () Int)
(declare-fun call_voiture.meter () Bool)
(declare-fun call_voiture.flby2 () Bool)
(declare-fun call_voiture.speed () Int)
(define-fun .def_509 () Bool (= call_Sofar.flby.next call_Sofar.Sofar.next))
(define-fun .def_505 () Bool (and param_s.next param_m.next))
(define-fun .def_506 () Bool (not .def_505))
(define-fun .def_507 () Bool (= call_excludes2.excludes.next .def_506))
(define-fun .def_503 () Bool (= call_voiture.meter.next call_voiture.flby.next))
(define-fun .def_501 () Bool (= call_voiture.second.next call_voiture.flby2.next))
(define-fun .def_498 () Bool (= call_voiture.move.next call_voiture.flby3.next))
(define-fun .def_495 () Bool (= call_voiture.ite3.next 0))
(define-fun .def_491 () Bool (not call_voiture.move.next))
(define-fun .def_492 () Bool (or call_voiture.second.next .def_491))
(define-fun .def_494 () Bool (not .def_492))
(define-fun .def_496 () Bool (or .def_494 .def_495))
(define-fun .def_490 () Bool (= call_voiture.ite2.next call_voiture.ite3.next))
(define-fun .def_493 () Bool (or .def_490 .def_492))
(define-fun .def_497 () Bool (and .def_493 .def_496))
(define-fun .def_499 () Bool (and .def_497 .def_498))
(define-fun .def_488 () Bool (= call_voiture.flby6.next call_voiture.time.next))
(define-fun .def_486 () Bool (= call_voiture.flby5.next call_voiture.speed.next))
(define-fun .def_484 () Bool (= call_voiture.flby4.next call_voiture.dist.next))
(define-fun .def_481 () Bool (= call_voiture.dist.next 10))
(define-fun .def_482 () Bool (= call_voiture.bump.next .def_481))
(define-fun .def_478 () Bool (<= 4 call_voiture.time.next))
(define-fun .def_479 () Bool (= call_voiture.stop.next .def_478))
(define-fun .def_475 () Bool (<= 3 call_voiture.speed.next))
(define-fun .def_476 () Bool (= call_voiture.toofast.next .def_475))
(define-fun .def_473 () Bool (= env.next call_Sofar.Sofar.next))
(define-fun .def_469 () Bool (= call_voiture.meter.next meter.next))
(define-fun .def_466 () Bool (= call_voiture.second.next second.next))
(define-fun .def_463 () Bool (= call_voiture.move.next move.next))
(define-fun .def_460 () Bool (= time.next call_voiture.time.next))
(define-fun .def_456 () Bool (= speed.next call_voiture.speed.next))
(define-fun .def_452 () Bool (= dist.next call_voiture.dist.next))
(define-fun .def_448 () Bool (= bump.next call_voiture.bump.next))
(define-fun .def_444 () Bool (= stop.next call_voiture.stop.next))
(define-fun .def_440 () Bool (= toofast.next call_voiture.toofast.next))
(define-fun .def_437 () Bool (= flby.next _OK_.next))
(define-fun .def_441 () Bool (and .def_437 .def_440))
(define-fun .def_445 () Bool (and .def_441 .def_444))
(define-fun .def_449 () Bool (and .def_445 .def_448))
(define-fun .def_453 () Bool (and .def_449 .def_452))
(define-fun .def_457 () Bool (and .def_453 .def_456))
(define-fun .def_461 () Bool (and .def_457 .def_460))
(define-fun .def_464 () Bool (and .def_461 .def_463))
(define-fun .def_467 () Bool (and .def_464 .def_466))
(define-fun .def_470 () Bool (and .def_467 .def_469))
(define-fun .def_474 () Bool (and .def_470 .def_473))
(define-fun .def_477 () Bool (and .def_474 .def_476))
(define-fun .def_480 () Bool (and .def_477 .def_479))
(define-fun .def_483 () Bool (and .def_480 .def_482))
(define-fun .def_485 () Bool (and .def_483 .def_484))
(define-fun .def_487 () Bool (and .def_485 .def_486))
(define-fun .def_489 () Bool (and .def_487 .def_488))
(define-fun .def_500 () Bool (and .def_489 .def_499))
(define-fun .def_502 () Bool (and .def_500 .def_501))
(define-fun .def_504 () Bool (and .def_502 .def_503))
(define-fun .def_508 () Bool (and .def_504 .def_507))
(define-fun .def_510 () Bool (and .def_508 .def_509))
(define-fun .def_366 () Bool (= call_Sofar.flby call_Sofar.Sofar))
(define-fun .def_362 () Bool (and param_s param_m))
(define-fun .def_363 () Bool (not .def_362))
(define-fun .def_364 () Bool (= call_excludes2.excludes .def_363))
(define-fun .def_358 () Bool (= call_voiture.flby call_voiture.meter))
(define-fun .def_356 () Bool (= call_voiture.flby2 call_voiture.second))
(define-fun .def_353 () Bool (= call_voiture.flby3 call_voiture.move))
(define-fun .def_350 () Bool (= call_voiture.ite3 0))
(define-fun .def_346 () Bool (not call_voiture.move))
(define-fun .def_347 () Bool (or call_voiture.second .def_346))
(define-fun .def_349 () Bool (not .def_347))
(define-fun .def_351 () Bool (or .def_349 .def_350))
(define-fun .def_345 () Bool (= call_voiture.ite2 call_voiture.ite3))
(define-fun .def_348 () Bool (or .def_345 .def_347))
(define-fun .def_352 () Bool (and .def_348 .def_351))
(define-fun .def_354 () Bool (and .def_352 .def_353))
(define-fun .def_341 () Bool (= call_voiture.flby6 call_voiture.time))
(define-fun .def_339 () Bool (= call_voiture.flby5 call_voiture.speed))
(define-fun .def_337 () Bool (= call_voiture.flby4 call_voiture.dist))
(define-fun .def_334 () Bool (= call_voiture.dist 10))
(define-fun .def_335 () Bool (= call_voiture.bump .def_334))
(define-fun .def_331 () Bool (<= 4 call_voiture.time))
(define-fun .def_332 () Bool (= call_voiture.stop .def_331))
(define-fun .def_328 () Bool (<= 3 call_voiture.speed))
(define-fun .def_329 () Bool (= call_voiture.toofast .def_328))
(define-fun .def_326 () Bool (= env call_Sofar.Sofar))
(define-fun .def_322 () Bool (= meter call_voiture.meter))
(define-fun .def_318 () Bool (= second call_voiture.second))
(define-fun .def_314 () Bool (= move call_voiture.move))
(define-fun .def_310 () Bool (= time call_voiture.time))
(define-fun .def_306 () Bool (= speed call_voiture.speed))
(define-fun .def_302 () Bool (= dist call_voiture.dist))
(define-fun .def_298 () Bool (= bump call_voiture.bump))
(define-fun .def_294 () Bool (= stop call_voiture.stop))
(define-fun .def_290 () Bool (= toofast call_voiture.toofast))
(define-fun .def_287 () Bool (= flby _OK_))
(define-fun .def_291 () Bool (and .def_287 .def_290))
(define-fun .def_295 () Bool (and .def_291 .def_294))
(define-fun .def_299 () Bool (and .def_295 .def_298))
(define-fun .def_303 () Bool (and .def_299 .def_302))
(define-fun .def_307 () Bool (and .def_303 .def_306))
(define-fun .def_311 () Bool (and .def_307 .def_310))
(define-fun .def_315 () Bool (and .def_311 .def_314))
(define-fun .def_319 () Bool (and .def_315 .def_318))
(define-fun .def_323 () Bool (and .def_319 .def_322))
(define-fun .def_327 () Bool (and .def_323 .def_326))
(define-fun .def_330 () Bool (and .def_327 .def_329))
(define-fun .def_333 () Bool (and .def_330 .def_332))
(define-fun .def_336 () Bool (and .def_333 .def_335))
(define-fun .def_338 () Bool (and .def_336 .def_337))
(define-fun .def_340 () Bool (and .def_338 .def_339))
(define-fun .def_342 () Bool (and .def_340 .def_341))
(define-fun .def_355 () Bool (and .def_342 .def_354))
(define-fun .def_357 () Bool (and .def_355 .def_356))
(define-fun .def_359 () Bool (and .def_357 .def_358))
(define-fun .def_365 () Bool (and .def_359 .def_364))
(define-fun .def_367 () Bool (and .def_365 .def_366))
(define-fun .def_511 () Bool (and .def_367 .def_510))
(define-fun .def_432 () Bool (and call_Sofar.Sofar call_excludes2.excludes.next))
(define-fun .def_434 () Bool (= .def_432 call_Sofar.flby.next))
(define-fun .def_429 () Bool (= call_voiture.ite4.next call_voiture.flby6.next))
(define-fun .def_426 () Bool (= call_voiture.flby5.next call_voiture.ite3.next))
(define-fun .def_422 () Bool (= call_voiture.ite.next call_voiture.flby4.next))
(define-fun .def_416 () Bool (not call_voiture.bump))
(define-fun .def_414 () Bool (not call_voiture.toofast))
(define-fun .def_412 () Bool (not call_voiture.stop))
(define-fun .def_413 () Bool (and call_voiture.move .def_412))
(define-fun .def_415 () Bool (and .def_413 .def_414))
(define-fun .def_417 () Bool (and .def_415 .def_416))
(define-fun .def_419 () Bool (= .def_417 call_voiture.flby3.next))
(define-fun .def_410 () Bool (= param_s.next call_voiture.flby2.next))
(define-fun .def_403 () Bool (not param_s.next))
(define-fun .def_405 () Bool (and .def_403 param_m.next))
(define-fun .def_407 () Bool (= .def_405 call_voiture.flby.next))
(define-fun .def_398 () Bool (not call_voiture.second.next))
(define-fun .def_395 () Int (* (- 1) call_voiture.ite4.next))
(define-fun .def_396 () Int (+ call_voiture.time .def_395))
(define-fun .def_397 () Bool (= .def_396 (- 1)))
(define-fun .def_399 () Bool (or .def_397 .def_398))
(define-fun .def_392 () Bool (= call_voiture.time call_voiture.ite4.next))
(define-fun .def_394 () Bool (or .def_392 call_voiture.second.next))
(define-fun .def_400 () Bool (and .def_394 .def_399))
(define-fun .def_386 () Bool (= call_voiture.speed call_voiture.ite2.next))
(define-fun .def_373 () Bool (and call_voiture.move.next call_voiture.meter.next))
(define-fun .def_378 () Bool (not .def_373))
(define-fun .def_388 () Bool (or .def_378 .def_386))
(define-fun .def_387 () Bool (or .def_373 .def_386))
(define-fun .def_389 () Bool (and .def_387 .def_388))
(define-fun .def_381 () Bool (not bump))
(define-fun .def_383 () Bool (= .def_381 flby.next))
(define-fun .def_375 () Int (* (- 1) call_voiture.ite.next))
(define-fun .def_376 () Int (+ call_voiture.dist .def_375))
(define-fun .def_377 () Bool (= .def_376 (- 1)))
(define-fun .def_379 () Bool (or .def_377 .def_378))
(define-fun .def_370 () Bool (= call_voiture.dist call_voiture.ite.next))
(define-fun .def_374 () Bool (or .def_370 .def_373))
(define-fun .def_380 () Bool (and .def_374 .def_379))
(define-fun .def_384 () Bool (and .def_380 .def_383))
(define-fun .def_390 () Bool (and .def_384 .def_389))
(define-fun .def_401 () Bool (and .def_390 .def_400))
(define-fun .def_408 () Bool (and .def_401 .def_407))
(define-fun .def_411 () Bool (and .def_408 .def_410))
(define-fun .def_420 () Bool (and .def_411 .def_419))
(define-fun .def_423 () Bool (and .def_420 .def_422))
(define-fun .def_427 () Bool (and .def_423 .def_426))
(define-fun .def_430 () Bool (and .def_427 .def_429))
(define-fun .def_435 () Bool (and .def_430 .def_434))
(define-fun .def_512 () Bool (and .def_435 .def_511))
(assert .def_512)
